\ LP format - for model browsing. Use MPS format to capture full model detail.
Maximize
  - 5 C0 - 8 C1 - C2 - 4 C3
Subject To
 R0: - C0 + C2 + C3 = 0
 R1: - C1 - C2 + C4 = 0
 R2: C0 + C1 = 1
 R3: - C3 - C4 = -1
Bounds
Binaries
 C0 C1 C2 C3 C4
End
